c Path planning problem for ProbSAT
c Generated by gen_cnf.py
p cnf 45 59
1 2 3 0
4 5 6 0
7 8 9 0
10 11 12 0
13 14 15 0
16 17 18 0
19 20 21 0
22 23 24 0
25 26 27 0
28 29 30 0
31 32 33 0
34 35 36 0
37 38 39 0
40 41 42 0
43 44 45 0
-1 4 5 0
-2 5 4 6 0
-3 6 5 0
-4 7 8 0
-5 8 7 9 0
-6 9 8 0
-7 10 11 0
-8 11 10 12 0
-9 12 11 0
-10 13 14 0
-11 14 13 15 0
-12 15 14 0
-13 16 17 0
-14 17 16 18 0
-15 18 17 0
-16 19 20 0
-17 20 19 21 0
-18 21 20 0
-19 22 23 0
-20 23 22 24 0
-21 24 23 0
-22 25 26 0
-23 26 25 27 0
-24 27 26 0
-25 28 29 0
-26 29 28 30 0
-27 30 29 0
-28 31 32 0
-29 32 31 33 0
-30 33 32 0
-31 34 35 0
-32 35 34 36 0
-33 36 35 0
-34 37 38 0
-35 38 37 39 0
-36 39 38 0
-37 40 41 0
-38 41 40 42 0
-39 42 41 0
-40 43 44 0
-41 44 43 45 0
-42 45 44 0
1 0
45 0
